nbCarTypes = 6;
nbOptions = 4;
nbSlots = 12;
demand = [2, 2, 2, 2, 2, 2];
option = [
           [ 1, 0, 1, 0],
           [ 0, 0, 1, 1],
           [ 0, 1, 0, 0],
           [ 1, 1, 0, 0],
           [ 0, 0, 1, 0],
           [ 0, 0, 0, 1]
        ]; 